
Gurobi 9.5.1 (linux64) logging started Sun Jun 19 12:11:18 2022

Set parameter LogFile to value "../results/logs/log_web-baidu-baike.e_3_2_2022_06_19_11_04.log"
Gurobi Optimizer version 9.5.1 build v9.5.1rc2 (linux64)
Thread count: 8 physical cores, 8 logical processors, using up to 8 threads
Optimize a model with 65003 rows, 4280396 columns and 1176195 nonzeros
Model fingerprint: 0x6fa974d3
Variable types: 0 continuous, 4280396 integer (4280396 binary)
Coefficient statistics:
  Matrix range     [1e+00, 3e+00]
  Objective range  [1e+00, 1e+00]
  Bounds range     [1e+00, 1e+00]
  RHS range        [1e+00, 2e+00]
Found heuristic solution: objective 1277646.0000
Presolve removed 45603 rows and 4250129 columns (presolve time = 5s) ...
Presolve removed 52720 rows and 4263962 columns
Presolve time: 7.17s
Presolved: 12283 rows, 16434 columns, 46856 nonzeros
Variable types: 0 continuous, 16434 integer (15463 binary)
Found heuristic solution: objective 1277650.0000

Root simplex log...

Iteration    Objective       Primal Inf.    Dual Inf.      Time
       0    1.2840615e+06   1.729125e+03   0.000000e+00      8s
    6019    1.2780172e+06   0.000000e+00   0.000000e+00      8s

Root relaxation: objective 1.278017e+06, 6019 iterations, 0.03 seconds (0.02 work units)

    Nodes    |    Current Node    |     Objective Bounds      |     Work
 Expl Unexpl |  Obj  Depth IntInf | Incumbent    BestBd   Gap | It/Node Time

     0     0 1278017.19    0  369 1277650.00 1278017.19  0.03%     -    8s
H    0     0                    1277652.0000 1278017.19  0.03%     -    8s
H    0     0                    1277653.0000 1278017.19  0.03%     -    8s
     0     0 1277685.15    0   57 1277653.00 1277685.15  0.00%     -    8s
H    0     0                    1277655.0000 1277685.15  0.00%     -    8s
H    0     0                    1277661.0000 1277685.15  0.00%     -    8s
     0     0 1277678.69    0   57 1277661.00 1277678.69  0.00%     -    8s
     0     0 1277678.03    0   48 1277661.00 1277678.03  0.00%     -    8s
     0     0 1277678.03    0   48 1277661.00 1277678.03  0.00%     -    8s
     0     0 1277676.76    0   49 1277661.00 1277676.76  0.00%     -    8s
     0     0 1277668.63    0   29 1277661.00 1277668.63  0.00%     -    9s
     0     0 1277668.34    0   29 1277661.00 1277668.34  0.00%     -    9s
     0     0 1277668.00    0   12 1277661.00 1277668.00  0.00%     -    9s
     0     0 1277668.00    0  167 1277661.00 1277668.00  0.00%     -    9s
     0     0 1277668.00    0   46 1277661.00 1277668.00  0.00%     -    9s
     0     0 1277666.10    0   28 1277661.00 1277666.10  0.00%     -    9s
     0     0 1277665.00    0   33 1277661.00 1277665.00  0.00%     -    9s
     0     0 1277665.00    0   34 1277661.00 1277665.00  0.00%     -    9s
*    0     0               0    1277663.0000 1277663.00  0.00%     -    9s

Cutting planes:
  Gomory: 61
  Cover: 16
  MIR: 84
  StrongCG: 8
  GUB cover: 130
  Zero half: 13
  RLT: 13

Explored 1 nodes (7546 simplex iterations) in 9.82 seconds (5.68 work units)
Thread count was 8 (of 8 available processors)

Solution count 7: 1.27766e+06 1.27766e+06 1.27766e+06 ... 1.27765e+06

Optimal solution found (tolerance 0.00e+00)
Best objective 1.277663000000e+06, best bound 1.277663000000e+06, gap 0.0000%
